
630.0
630.0
630.0
630.0
630.0
630.0
630.0
630.0
630.0
630.0
630.0
630.0
630.0
630.0
630.0
630.0
630.0
630.0
930.0
630.0
690.0
630.0
630.0
630.0
630.0
1050.0
630.0
810.0
1050.0
630.0
630.0
630.0
630.0
630.0
660.0
630.0
630.0
630.0
630.0
630.0
630.0
630.0
630.0
630.0
630.0
630.0
630.0
630.0
630.0
630.0